\ENCODING=ISO-8859-1
\Problem name: ilog.cplex

Minimize
 obj1: 10 x(0,3,1) + 50 x(0,0,1)
Subject To
 _10b,0,0#0: - 0.00692038750968393 x(0,3,1) - 0.0341263227589502 x(0,2,0)
             - 0.0206178186687599 x(0,1,0) + 0.993079612490316 x(0,0,1)  = 0
 _10b,0,1#1: - 0.993079612490316 x(0,3,1) + x(0,1,0)
             - 0.993079612490316 x(0,0,1)  = 0
 _10b,0,2#2: x(0,2,0) - 0.97938218133124 x(0,1,0)  = 0
 _10b,0,3#3: x(0,3,1) - 0.96587367724105 x(0,2,0)  = 0
 _10e,0#4:   x(0,3,1) + x(0,2,0) + x(0,1,0) + x(0,0,1)  = 1
Bounds
 0 <= x(0,3,1) <= 1
 0 <= x(0,2,0) <= 1
 0 <= x(0,1,0) <= 1
 0 <= x(0,0,1) <= 1
End
